16
 31957 117108 250834 775747 994544 315281 937184 258099 877986 327103 632921 518873 708189 537974 732066 838024
 66111 215853 452976 1435157 1901253 649654 2034198 496995 1725886 678356 1329367 1088047 1507322 1041781 1607816 1634282
 4426945